100
1000
685
690
208
429
369
644
694
206
558
841
827
411
515
667
409
453
720
205
217
289
430
548
354
375
641
237
304
810
386
308
598
250
250
354
507
625
488
360
382
884
489
621
489
204
831
227
556
576
552
247
263
861
225
842
713
678
300
411
526
795
801
873
754
375
536
261
609
286
625
462
589
675
298
818
408
767
759
579
592
665
725
240
537
633
780
342
227
656
883
416
344
408
281
344
316
594
438
250
837
477
